Total weight: 1245.599805381509
Route 1: 0 48 36 47 45 42 15 14 44 99 6 8 46 49 64 20 53 13 40 74 87 17 84 60 18 0 
Route 2: 0 33 29 3 76 31 88 90 10 32 66 35 68 24 54 80 77 50 0 
Route 3: 0 94 95 92 59 96 7 62 63 11 19 82 83 5 61 16 38 86 91 98 37 97 2 21 73 56 4 55 25 26 58 0 
Route 4: 0 28 12 39 67 23 75 72 22 41 57 43 100 85 93 0 
Route 5: 0 30 65 71 34 78 79 81 9 51 52 89 0 
Route 6: 0 27 69 70 1 0 
